NAME: ./prFile/tspFile/tsp_file71.tsp
COMMENT: TSP file generated by Python
TYPE: TSP
DIMENSION: 40
EDGE_WEIGHT_TYPE: EUC_2D
NODE_COORD_SECTION
1 62 70
2 52 94
3 36 8
4 72 9
5 99 59
6 40 60
7 56 86
8 2 62
9 32 26
10 22 45
11 55 32
12 82 45
13 3 92
14 47 24
15 52 39
16 42 39
17 97 41
18 43 66
19 1 28
20 23 58
21 15 98
22 93 76
23 86 94
24 87 14
25 87 9
26 13 73
27 40 97
28 62 99
29 47 72
30 21 27
31 84 89
32 13 77
33 52 98
34 8 12
35 61 29
36 2 71
37 27 19
38 88 98
39 58 49
40 74 83
EOF
